c Generated map
c Size: 9 * 9, weights in range: 1 to 10, walls: True, with ratio 0.05
c dim 5 of 8
c
p sp 81 130
c graph contains 81 nodes and 130 arcs
c
a 1 10 10
a 10 1 10
a 1 2 9
a 2 1 9
a 2 11 5
a 11 2 5
a 2 3 3
a 3 2 3
a 3 12 7
a 12 3 7
a 5 14 3
a 14 5 3
a 5 6 6
a 6 5 6
a 6 15 2
a 15 6 2
a 8 17 4
a 17 8 4
a 8 9 5
a 9 8 5
a 9 18 4
a 18 9 4
a 10 19 9
a 19 10 9
a 10 11 10
a 11 10 10
a 11 20 10
a 20 11 10
a 11 12 5
a 12 11 5
a 12 21 8
a 21 12 8
a 12 13 9
a 13 12 9
a 13 22 5
a 22 13 5
a 13 14 7
a 14 13 7
a 14 23 3
a 23 14 3
a 14 15 6
a 15 14 6
a 15 24 7
a 24 15 7
a 15 16 4
a 16 15 4
a 16 25 5
a 25 16 5
a 16 17 7
a 17 16 7
a 17 26 5
a 26 17 5
a 17 18 1
a 18 17 1
a 18 27 5
a 27 18 5
a 19 28 5
a 28 19 5
a 19 20 6
a 20 19 6
a 20 29 2
a 29 20 2
a 20 21 10
a 21 20 10
a 21 30 5
a 30 21 5
a 21 22 3
a 22 21 3
a 22 31 5
a 31 22 5
a 22 23 8
a 23 22 8
a 23 24 10
a 24 23 10
a 24 33 10
a 33 24 10
a 24 25 7
a 25 24 7
a 25 34 7
a 34 25 7
a 25 26 6
a 26 25 6
a 26 35 7
a 35 26 7
a 26 27 2
a 27 26 2
a 27 36 6
a 36 27 6
a 28 37 1
a 37 28 1
a 28 29 1
a 29 28 1
a 29 38 5
a 38 29 5
a 29 30 10
a 30 29 10
a 30 39 4
a 39 30 4
a 30 31 6
a 31 30 6
a 31 40 5
a 40 31 5
a 33 42 9
a 42 33 9
a 33 34 8
a 34 33 8
a 34 43 5
a 43 34 5
a 34 35 7
a 35 34 7
a 35 44 9
a 44 35 9
a 35 36 4
a 36 35 4
a 36 45 6
a 45 36 6
a 37 46 4
a 46 37 4
a 37 38 10
a 38 37 10
a 38 47 5
a 47 38 5
a 38 39 6
a 39 38 6
a 39 48 2
a 48 39 2
a 39 40 4
a 40 39 4
a 40 49 6
a 49 40 6
a 40 41 4
a 41 40 4
a 41 50 5
a 50 41 5
a 41 42 4
a 42 41 4
a 42 51 2
a 51 42 2
a 42 43 5
a 43 42 5
a 43 52 1
a 52 43 1
a 43 44 6
a 44 43 6
a 44 53 2
a 53 44 2
a 44 45 7
a 45 44 7
a 45 54 5
a 54 45 5
a 46 55 5
a 55 46 5
a 46 47 5
a 47 46 5
a 47 56 4
a 56 47 4
a 47 48 9
a 48 47 9
a 48 57 5
a 57 48 5
a 48 49 7
a 49 48 7
a 49 58 5
a 58 49 5
a 49 50 6
a 50 49 6
a 50 59 5
a 59 50 5
a 50 51 9
a 51 50 9
a 51 60 4
a 60 51 4
a 51 52 4
a 52 51 4
a 52 61 9
a 61 52 9
a 52 53 9
a 53 52 9
a 53 62 2
a 62 53 2
a 53 54 8
a 54 53 8
a 54 63 4
a 63 54 4
a 55 64 8
a 64 55 8
a 55 56 5
a 56 55 5
a 56 65 3
a 65 56 3
a 56 57 6
a 57 56 6
a 57 66 8
a 66 57 8
a 57 58 7
a 58 57 7
a 58 67 6
a 67 58 6
a 58 59 3
a 59 58 3
a 59 68 5
a 68 59 5
a 59 60 6
a 60 59 6
a 60 69 6
a 69 60 6
a 60 61 1
a 61 60 1
a 61 70 9
a 70 61 9
a 61 62 9
a 62 61 9
a 62 63 4
a 63 62 4
a 63 72 1
a 72 63 1
a 64 73 5
a 73 64 5
a 64 65 9
a 65 64 9
a 65 74 6
a 74 65 6
a 65 66 4
a 66 65 4
a 66 75 1
a 75 66 1
a 66 67 6
a 67 66 6
a 67 76 10
a 76 67 10
a 67 68 9
a 68 67 9
a 68 77 2
a 77 68 2
a 68 69 8
a 69 68 8
a 69 78 4
a 78 69 4
a 69 70 6
a 70 69 6
a 70 79 7
a 79 70 7
a 72 81 8
a 81 72 8
a 73 74 10
a 74 73 10
a 74 75 3
a 75 74 3
a 75 76 9
a 76 75 9
a 76 77 6
a 77 76 6
a 77 78 5
a 78 77 5
a 78 79 4
a 79 78 4
a 79 80 10
a 80 79 10
a 80 81 4
a 81 80 4
